jpf-symbc-bounded/src/examples/symbolicheap/bounded/bounddb/TreeSet-01.cnf
p cnf 118 162               
16 -40 0
18 -40 0
-16 -18 40 0
-2 -1 -19 0
19 -21 0
1 2 -20 0
20 -21 0
-4 -3 -22 0
22 -24 0
3 4 -23 0
23 -24 0
-6 -5 -25 0
25 -27 0
5 6 -26 0
26 -27 0
-8 -7 -28 0
28 -30 0
7 8 -29 0
29 -30 0
-12 -11 -31 0
31 -33 0
11 12 -32 0
32 -33 0
-14 -13 -34 0
34 -36 0
13 14 -35 0
35 -36 0
-17 -16 -37 0
37 -39 0
16 17 -38 0
38 -39 0
10 -45 0
15 -45 0
-10 -15 45 0
2 -47 0
18 -47 0
-2 -18 47 0
-47 -48 0
1 -46 0
18 -46 0
-1 -18 46 0
46 -48 0
48 -114 0
17 -41 0
18 -41 0
-17 -18 41 0
-14 -41 50 0
-50 -101 0
10 -80 0
-14 -54 0
13 -54 0
54 -76 0
7 58 0
3 -56 0
18 -56 0
-3 -18 56 0
-56 58 0
8 59 0
4 -57 0
18 -57 0
-4 -18 57 0
-57 59 0
-58 -59 60 0
56 61 0
-7 61 0
57 62 0
-8 62 0
-61 -62 63 0
-60 -63 64 0
54 -64 65 0
7 -66 0
14 -66 0
-7 -14 66 0
-66 46 -68 0
68 -70 0
8 -67 0
14 -67 0
-8 -14 67 0
-67 47 -69 0
69 -70 0
70 -74 0
-46 66 -71 0
71 -73 0
-47 67 -72 0
72 -73 0
73 -74 0
-65 74 -75 0
75 -76 0
76 -79 0
-5 -77 0
6 -77 0
-45 77 -78 0
78 -79 0
79 -80 0
80 -86 0
15 -10 84 0
-84 -85 0
10 -15 81 0
-81 -83 0
-14 -83 0
83 -85 0
85 -86 0
86 -99 0
57 56 82 0
47 46 91 0
15 -91 92 0
10 -92 93 0
-82 -93 97 0
-97 -98 0
15 -96 0
15 -82 87 0
10 -87 88 0
-6 -89 0
-5 -89 0
-88 89 -90 0
90 -95 0
-93 77 -94 0
94 -95 0
95 -96 0
96 -98 0
98 -99 0
-41 99 -100 0
100 -101 0
101 -113 0
-41 -102 0
40 -102 0
7 -103 0
41 -103 0
-7 -41 103 0
-103 46 -105 0
105 -107 0
8 -104 0
41 -104 0
-8 -41 104 0
-104 47 -106 0
106 -107 0
107 -111 0
-46 103 -108 0
108 -110 0
-47 104 -109 0
109 -110 0
110 -111 0
102 111 -112 0
112 -113 0
113 -114 0
114 -116 0
-56 -115 0
57 -115 0
115 -116 0
-40 0
-12 0
9 0
18 0
21 0
24 0
27 0
30 0
33 0
36 0
39 0
45 0
116 0
