jpf-symbc-bounded/src/examples/symbolicheap/bounded/bounddb/TreeSet-01.txt
#TreeSet_0
@left
@right
TreeSet/TreeSet_0/left/null
TreeSet/TreeSet_0/parent/null
TreeSet/TreeSet_0/right/null
